p cnf 125 1275
1 2 3 4 5 0
6 7 8 9 10 0
11 12 13 14 15 0
16 17 18 19 20 0
21 22 23 24 25 0
26 27 28 29 30 0
31 32 33 34 35 0
36 37 38 39 40 0
41 42 43 44 45 0
46 47 48 49 50 0
51 52 53 54 55 0
56 57 58 59 60 0
61 62 63 64 65 0
66 67 68 69 70 0
71 72 73 74 75 0
76 77 78 79 80 0
81 82 83 84 85 0
86 87 88 89 90 0
91 92 93 94 95 0
96 97 98 99 100 0
101 102 103 104 105 0
106 107 108 109 110 0
111 112 113 114 115 0
116 117 118 119 120 0
121 122 123 124 125 0
-1 -2 0
-1 -3 0
-1 -4 0
-1 -5 0
-2 -3 0
-2 -4 0
-2 -5 0
-3 -4 0
-3 -5 0
-4 -5 0
-6 -7 0
-6 -8 0
-6 -9 0
-6 -10 0
-7 -8 0
-7 -9 0
-7 -10 0
-8 -9 0
-8 -10 0
-9 -10 0
-11 -12 0
-11 -13 0
-11 -14 0
-11 -15 0
-12 -13 0
-12 -14 0
-12 -15 0
-13 -14 0
-13 -15 0
-14 -15 0
-16 -17 0
-16 -18 0
-16 -19 0
-16 -20 0
-17 -18 0
-17 -19 0
-17 -20 0
-18 -19 0
-18 -20 0
-19 -20 0
-21 -22 0
-21 -23 0
-21 -24 0
-21 -25 0
-22 -23 0
-22 -24 0
-22 -25 0
-23 -24 0
-23 -25 0
-24 -25 0
-26 -27 0
-26 -28 0
-26 -29 0
-26 -30 0
-27 -28 0
-27 -29 0
-27 -30 0
-28 -29 0
-28 -30 0
-29 -30 0
-31 -32 0
-31 -33 0
-31 -34 0
-31 -35 0
-32 -33 0
-32 -34 0
-32 -35 0
-33 -34 0
-33 -35 0
-34 -35 0
-36 -37 0
-36 -38 0
-36 -39 0
-36 -40 0
-37 -38 0
-37 -39 0
-37 -40 0
-38 -39 0
-38 -40 0
-39 -40 0
-41 -42 0
-41 -43 0
-41 -44 0
-41 -45 0
-42 -43 0
-42 -44 0
-42 -45 0
-43 -44 0
-43 -45 0
-44 -45 0
-46 -47 0
-46 -48 0
-46 -49 0
-46 -50 0
-47 -48 0
-47 -49 0
-47 -50 0
-48 -49 0
-48 -50 0
-49 -50 0
-51 -52 0
-51 -53 0
-51 -54 0
-51 -55 0
-52 -53 0
-52 -54 0
-52 -55 0
-53 -54 0
-53 -55 0
-54 -55 0
-56 -57 0
-56 -58 0
-56 -59 0
-56 -60 0
-57 -58 0
-57 -59 0
-57 -60 0
-58 -59 0
-58 -60 0
-59 -60 0
-61 -62 0
-61 -63 0
-61 -64 0
-61 -65 0
-62 -63 0
-62 -64 0
-62 -65 0
-63 -64 0
-63 -65 0
-64 -65 0
-66 -67 0
-66 -68 0
-66 -69 0
-66 -70 0
-67 -68 0
-67 -69 0
-67 -70 0
-68 -69 0
-68 -70 0
-69 -70 0
-71 -72 0
-71 -73 0
-71 -74 0
-71 -75 0
-72 -73 0
-72 -74 0
-72 -75 0
-73 -74 0
-73 -75 0
-74 -75 0
-76 -77 0
-76 -78 0
-76 -79 0
-76 -80 0
-77 -78 0
-77 -79 0
-77 -80 0
-78 -79 0
-78 -80 0
-79 -80 0
-81 -82 0
-81 -83 0
-81 -84 0
-81 -85 0
-82 -83 0
-82 -84 0
-82 -85 0
-83 -84 0
-83 -85 0
-84 -85 0
-86 -87 0
-86 -88 0
-86 -89 0
-86 -90 0
-87 -88 0
-87 -89 0
-87 -90 0
-88 -89 0
-88 -90 0
-89 -90 0
-91 -92 0
-91 -93 0
-91 -94 0
-91 -95 0
-92 -93 0
-92 -94 0
-92 -95 0
-93 -94 0
-93 -95 0
-94 -95 0
-96 -97 0
-96 -98 0
-96 -99 0
-96 -100 0
-97 -98 0
-97 -99 0
-97 -100 0
-98 -99 0
-98 -100 0
-99 -100 0
-101 -102 0
-101 -103 0
-101 -104 0
-101 -105 0
-102 -103 0
-102 -104 0
-102 -105 0
-103 -104 0
-103 -105 0
-104 -105 0
-106 -107 0
-106 -108 0
-106 -109 0
-106 -110 0
-107 -108 0
-107 -109 0
-107 -110 0
-108 -109 0
-108 -110 0
-109 -110 0
-111 -112 0
-111 -113 0
-111 -114 0
-111 -115 0
-112 -113 0
-112 -114 0
-112 -115 0
-113 -114 0
-113 -115 0
-114 -115 0
-116 -117 0
-116 -118 0
-116 -119 0
-116 -120 0
-117 -118 0
-117 -119 0
-117 -120 0
-118 -119 0
-118 -120 0
-119 -120 0
-121 -122 0
-121 -123 0
-121 -124 0
-121 -125 0
-122 -123 0
-122 -124 0
-122 -125 0
-123 -124 0
-123 -125 0
-124 -125 0
-1 -6 0
-1 -11 0
-1 -16 0
-1 -21 0
-6 -11 0
-6 -16 0
-6 -21 0
-11 -16 0
-11 -21 0
-16 -21 0
-26 -31 0
-26 -36 0
-26 -41 0
-26 -46 0
-31 -36 0
-31 -41 0
-31 -46 0
-36 -41 0
-36 -46 0
-41 -46 0
-51 -56 0
-51 -61 0
-51 -66 0
-51 -71 0
-56 -61 0
-56 -66 0
-56 -71 0
-61 -66 0
-61 -71 0
-66 -71 0
-76 -81 0
-76 -86 0
-76 -91 0
-76 -96 0
-81 -86 0
-81 -91 0
-81 -96 0
-86 -91 0
-86 -96 0
-91 -96 0
-101 -106 0
-101 -111 0
-101 -116 0
-101 -121 0
-106 -111 0
-106 -116 0
-106 -121 0
-111 -116 0
-111 -121 0
-116 -121 0
-2 -7 0
-2 -12 0
-2 -17 0
-2 -22 0
-7 -12 0
-7 -17 0
-7 -22 0
-12 -17 0
-12 -22 0
-17 -22 0
-27 -32 0
-27 -37 0
-27 -42 0
-27 -47 0
-32 -37 0
-32 -42 0
-32 -47 0
-37 -42 0
-37 -47 0
-42 -47 0
-52 -57 0
-52 -62 0
-52 -67 0
-52 -72 0
-57 -62 0
-57 -67 0
-57 -72 0
-62 -67 0
-62 -72 0
-67 -72 0
-77 -82 0
-77 -87 0
-77 -92 0
-77 -97 0
-82 -87 0
-82 -92 0
-82 -97 0
-87 -92 0
-87 -97 0
-92 -97 0
-102 -107 0
-102 -112 0
-102 -117 0
-102 -122 0
-107 -112 0
-107 -117 0
-107 -122 0
-112 -117 0
-112 -122 0
-117 -122 0
-3 -8 0
-3 -13 0
-3 -18 0
-3 -23 0
-8 -13 0
-8 -18 0
-8 -23 0
-13 -18 0
-13 -23 0
-18 -23 0
-28 -33 0
-28 -38 0
-28 -43 0
-28 -48 0
-33 -38 0
-33 -43 0
-33 -48 0
-38 -43 0
-38 -48 0
-43 -48 0
-53 -58 0
-53 -63 0
-53 -68 0
-53 -73 0
-58 -63 0
-58 -68 0
-58 -73 0
-63 -68 0
-63 -73 0
-68 -73 0
-78 -83 0
-78 -88 0
-78 -93 0
-78 -98 0
-83 -88 0
-83 -93 0
-83 -98 0
-88 -93 0
-88 -98 0
-93 -98 0
-103 -108 0
-103 -113 0
-103 -118 0
-103 -123 0
-108 -113 0
-108 -118 0
-108 -123 0
-113 -118 0
-113 -123 0
-118 -123 0
-4 -9 0
-4 -14 0
-4 -19 0
-4 -24 0
-9 -14 0
-9 -19 0
-9 -24 0
-14 -19 0
-14 -24 0
-19 -24 0
-29 -34 0
-29 -39 0
-29 -44 0
-29 -49 0
-34 -39 0
-34 -44 0
-34 -49 0
-39 -44 0
-39 -49 0
-44 -49 0
-54 -59 0
-54 -64 0
-54 -69 0
-54 -74 0
-59 -64 0
-59 -69 0
-59 -74 0
-64 -69 0
-64 -74 0
-69 -74 0
-79 -84 0
-79 -89 0
-79 -94 0
-79 -99 0
-84 -89 0
-84 -94 0
-84 -99 0
-89 -94 0
-89 -99 0
-94 -99 0
-104 -109 0
-104 -114 0
-104 -119 0
-104 -124 0
-109 -114 0
-109 -119 0
-109 -124 0
-114 -119 0
-114 -124 0
-119 -124 0
-5 -10 0
-5 -15 0
-5 -20 0
-5 -25 0
-10 -15 0
-10 -20 0
-10 -25 0
-15 -20 0
-15 -25 0
-20 -25 0
-30 -35 0
-30 -40 0
-30 -45 0
-30 -50 0
-35 -40 0
-35 -45 0
-35 -50 0
-40 -45 0
-40 -50 0
-45 -50 0
-55 -60 0
-55 -65 0
-55 -70 0
-55 -75 0
-60 -65 0
-60 -70 0
-60 -75 0
-65 -70 0
-65 -75 0
-70 -75 0
-80 -85 0
-80 -90 0
-80 -95 0
-80 -100 0
-85 -90 0
-85 -95 0
-85 -100 0
-90 -95 0
-90 -100 0
-95 -100 0
-105 -110 0
-105 -115 0
-105 -120 0
-105 -125 0
-110 -115 0
-110 -120 0
-110 -125 0
-115 -120 0
-115 -125 0
-120 -125 0
-1 -26 0
-1 -51 0
-1 -76 0
-1 -101 0
-26 -51 0
-26 -76 0
-26 -101 0
-51 -76 0
-51 -101 0
-76 -101 0
-6 -31 0
-6 -56 0
-6 -81 0
-6 -106 0
-31 -56 0
-31 -81 0
-31 -106 0
-56 -81 0
-56 -106 0
-81 -106 0
-11 -36 0
-11 -61 0
-11 -86 0
-11 -111 0
-36 -61 0
-36 -86 0
-36 -111 0
-61 -86 0
-61 -111 0
-86 -111 0
-16 -41 0
-16 -66 0
-16 -91 0
-16 -116 0
-41 -66 0
-41 -91 0
-41 -116 0
-66 -91 0
-66 -116 0
-91 -116 0
-21 -46 0
-21 -71 0
-21 -96 0
-21 -121 0
-46 -71 0
-46 -96 0
-46 -121 0
-71 -96 0
-71 -121 0
-96 -121 0
-2 -27 0
-2 -52 0
-2 -77 0
-2 -102 0
-27 -52 0
-27 -77 0
-27 -102 0
-52 -77 0
-52 -102 0
-77 -102 0
-7 -32 0
-7 -57 0
-7 -82 0
-7 -107 0
-32 -57 0
-32 -82 0
-32 -107 0
-57 -82 0
-57 -107 0
-82 -107 0
-12 -37 0
-12 -62 0
-12 -87 0
-12 -112 0
-37 -62 0
-37 -87 0
-37 -112 0
-62 -87 0
-62 -112 0
-87 -112 0
-17 -42 0
-17 -67 0
-17 -92 0
-17 -117 0
-42 -67 0
-42 -92 0
-42 -117 0
-67 -92 0
-67 -117 0
-92 -117 0
-22 -47 0
-22 -72 0
-22 -97 0
-22 -122 0
-47 -72 0
-47 -97 0
-47 -122 0
-72 -97 0
-72 -122 0
-97 -122 0
-3 -28 0
-3 -53 0
-3 -78 0
-3 -103 0
-28 -53 0
-28 -78 0
-28 -103 0
-53 -78 0
-53 -103 0
-78 -103 0
-8 -33 0
-8 -58 0
-8 -83 0
-8 -108 0
-33 -58 0
-33 -83 0
-33 -108 0
-58 -83 0
-58 -108 0
-83 -108 0
-13 -38 0
-13 -63 0
-13 -88 0
-13 -113 0
-38 -63 0
-38 -88 0
-38 -113 0
-63 -88 0
-63 -113 0
-88 -113 0
-18 -43 0
-18 -68 0
-18 -93 0
-18 -118 0
-43 -68 0
-43 -93 0
-43 -118 0
-68 -93 0
-68 -118 0
-93 -118 0
-23 -48 0
-23 -73 0
-23 -98 0
-23 -123 0
-48 -73 0
-48 -98 0
-48 -123 0
-73 -98 0
-73 -123 0
-98 -123 0
-4 -29 0
-4 -54 0
-4 -79 0
-4 -104 0
-29 -54 0
-29 -79 0
-29 -104 0
-54 -79 0
-54 -104 0
-79 -104 0
-9 -34 0
-9 -59 0
-9 -84 0
-9 -109 0
-34 -59 0
-34 -84 0
-34 -109 0
-59 -84 0
-59 -109 0
-84 -109 0
-14 -39 0
-14 -64 0
-14 -89 0
-14 -114 0
-39 -64 0
-39 -89 0
-39 -114 0
-64 -89 0
-64 -114 0
-89 -114 0
-19 -44 0
-19 -69 0
-19 -94 0
-19 -119 0
-44 -69 0
-44 -94 0
-44 -119 0
-69 -94 0
-69 -119 0
-94 -119 0
-24 -49 0
-24 -74 0
-24 -99 0
-24 -124 0
-49 -74 0
-49 -99 0
-49 -124 0
-74 -99 0
-74 -124 0
-99 -124 0
-5 -30 0
-5 -55 0
-5 -80 0
-5 -105 0
-30 -55 0
-30 -80 0
-30 -105 0
-55 -80 0
-55 -105 0
-80 -105 0
-10 -35 0
-10 -60 0
-10 -85 0
-10 -110 0
-35 -60 0
-35 -85 0
-35 -110 0
-60 -85 0
-60 -110 0
-85 -110 0
-15 -40 0
-15 -65 0
-15 -90 0
-15 -115 0
-40 -65 0
-40 -90 0
-40 -115 0
-65 -90 0
-65 -115 0
-90 -115 0
-20 -45 0
-20 -70 0
-20 -95 0
-20 -120 0
-45 -70 0
-45 -95 0
-45 -120 0
-70 -95 0
-70 -120 0
-95 -120 0
-25 -50 0
-25 -75 0
-25 -100 0
-25 -125 0
-50 -75 0
-50 -100 0
-50 -125 0
-75 -100 0
-75 -125 0
-100 -125 0
-1 -31 0
-1 -61 0
-1 -91 0
-1 -121 0
-31 -61 0
-31 -91 0
-31 -121 0
-61 -91 0
-61 -121 0
-91 -121 0
-6 -36 0
-6 -66 0
-6 -96 0
-6 -101 0
-36 -66 0
-36 -96 0
-36 -101 0
-66 -96 0
-66 -101 0
-96 -101 0
-11 -41 0
-11 -71 0
-11 -76 0
-11 -106 0
-41 -71 0
-41 -76 0
-41 -106 0
-71 -76 0
-71 -106 0
-76 -106 0
-16 -46 0
-16 -51 0
-16 -81 0
-16 -111 0
-46 -51 0
-46 -81 0
-46 -111 0
-51 -81 0
-51 -111 0
-81 -111 0
-21 -26 0
-21 -56 0
-21 -86 0
-21 -116 0
-26 -56 0
-26 -86 0
-26 -116 0
-56 -86 0
-56 -116 0
-86 -116 0
-2 -32 0
-2 -62 0
-2 -92 0
-2 -122 0
-32 -62 0
-32 -92 0
-32 -122 0
-62 -92 0
-62 -122 0
-92 -122 0
-7 -37 0
-7 -67 0
-7 -97 0
-7 -102 0
-37 -67 0
-37 -97 0
-37 -102 0
-67 -97 0
-67 -102 0
-97 -102 0
-12 -42 0
-12 -72 0
-12 -77 0
-12 -107 0
-42 -72 0
-42 -77 0
-42 -107 0
-72 -77 0
-72 -107 0
-77 -107 0
-17 -47 0
-17 -52 0
-17 -82 0
-17 -112 0
-47 -52 0
-47 -82 0
-47 -112 0
-52 -82 0
-52 -112 0
-82 -112 0
-22 -27 0
-22 -57 0
-22 -87 0
-22 -117 0
-27 -57 0
-27 -87 0
-27 -117 0
-57 -87 0
-57 -117 0
-87 -117 0
-3 -33 0
-3 -63 0
-3 -93 0
-3 -123 0
-33 -63 0
-33 -93 0
-33 -123 0
-63 -93 0
-63 -123 0
-93 -123 0
-8 -38 0
-8 -68 0
-8 -98 0
-8 -103 0
-38 -68 0
-38 -98 0
-38 -103 0
-68 -98 0
-68 -103 0
-98 -103 0
-13 -43 0
-13 -73 0
-13 -78 0
-13 -108 0
-43 -73 0
-43 -78 0
-43 -108 0
-73 -78 0
-73 -108 0
-78 -108 0
-18 -48 0
-18 -53 0
-18 -83 0
-18 -113 0
-48 -53 0
-48 -83 0
-48 -113 0
-53 -83 0
-53 -113 0
-83 -113 0
-23 -28 0
-23 -58 0
-23 -88 0
-23 -118 0
-28 -58 0
-28 -88 0
-28 -118 0
-58 -88 0
-58 -118 0
-88 -118 0
-4 -34 0
-4 -64 0
-4 -94 0
-4 -124 0
-34 -64 0
-34 -94 0
-34 -124 0
-64 -94 0
-64 -124 0
-94 -124 0
-9 -39 0
-9 -69 0
-9 -99 0
-9 -104 0
-39 -69 0
-39 -99 0
-39 -104 0
-69 -99 0
-69 -104 0
-99 -104 0
-14 -44 0
-14 -74 0
-14 -79 0
-14 -109 0
-44 -74 0
-44 -79 0
-44 -109 0
-74 -79 0
-74 -109 0
-79 -109 0
-19 -49 0
-19 -54 0
-19 -84 0
-19 -114 0
-49 -54 0
-49 -84 0
-49 -114 0
-54 -84 0
-54 -114 0
-84 -114 0
-24 -29 0
-24 -59 0
-24 -89 0
-24 -119 0
-29 -59 0
-29 -89 0
-29 -119 0
-59 -89 0
-59 -119 0
-89 -119 0
-5 -35 0
-5 -65 0
-5 -95 0
-5 -125 0
-35 -65 0
-35 -95 0
-35 -125 0
-65 -95 0
-65 -125 0
-95 -125 0
-10 -40 0
-10 -70 0
-10 -100 0
-10 -105 0
-40 -70 0
-40 -100 0
-40 -105 0
-70 -100 0
-70 -105 0
-100 -105 0
-15 -45 0
-15 -75 0
-15 -80 0
-15 -110 0
-45 -75 0
-45 -80 0
-45 -110 0
-75 -80 0
-75 -110 0
-80 -110 0
-20 -50 0
-20 -55 0
-20 -85 0
-20 -115 0
-50 -55 0
-50 -85 0
-50 -115 0
-55 -85 0
-55 -115 0
-85 -115 0
-25 -30 0
-25 -60 0
-25 -90 0
-25 -120 0
-30 -60 0
-30 -90 0
-30 -120 0
-60 -90 0
-60 -120 0
-90 -120 0
-1 -46 0
-1 -66 0
-1 -86 0
-1 -106 0
-46 -66 0
-46 -86 0
-46 -106 0
-66 -86 0
-66 -106 0
-86 -106 0
-6 -26 0
-6 -71 0
-6 -91 0
-6 -111 0
-26 -71 0
-26 -91 0
-26 -111 0
-71 -91 0
-71 -111 0
-91 -111 0
-11 -31 0
-11 -51 0
-11 -96 0
-11 -116 0
-31 -51 0
-31 -96 0
-31 -116 0
-51 -96 0
-51 -116 0
-96 -116 0
-16 -36 0
-16 -56 0
-16 -76 0
-16 -121 0
-36 -56 0
-36 -76 0
-36 -121 0
-56 -76 0
-56 -121 0
-76 -121 0
-21 -41 0
-21 -61 0
-21 -81 0
-21 -101 0
-41 -61 0
-41 -81 0
-41 -101 0
-61 -81 0
-61 -101 0
-81 -101 0
-2 -47 0
-2 -67 0
-2 -87 0
-2 -107 0
-47 -67 0
-47 -87 0
-47 -107 0
-67 -87 0
-67 -107 0
-87 -107 0
-7 -27 0
-7 -72 0
-7 -92 0
-7 -112 0
-27 -72 0
-27 -92 0
-27 -112 0
-72 -92 0
-72 -112 0
-92 -112 0
-12 -32 0
-12 -52 0
-12 -97 0
-12 -117 0
-32 -52 0
-32 -97 0
-32 -117 0
-52 -97 0
-52 -117 0
-97 -117 0
-17 -37 0
-17 -57 0
-17 -77 0
-17 -122 0
-37 -57 0
-37 -77 0
-37 -122 0
-57 -77 0
-57 -122 0
-77 -122 0
-22 -42 0
-22 -62 0
-22 -82 0
-22 -102 0
-42 -62 0
-42 -82 0
-42 -102 0
-62 -82 0
-62 -102 0
-82 -102 0
-3 -48 0
-3 -68 0
-3 -88 0
-3 -108 0
-48 -68 0
-48 -88 0
-48 -108 0
-68 -88 0
-68 -108 0
-88 -108 0
-8 -28 0
-8 -73 0
-8 -93 0
-8 -113 0
-28 -73 0
-28 -93 0
-28 -113 0
-73 -93 0
-73 -113 0
-93 -113 0
-13 -33 0
-13 -53 0
-13 -98 0
-13 -118 0
-33 -53 0
-33 -98 0
-33 -118 0
-53 -98 0
-53 -118 0
-98 -118 0
-18 -38 0
-18 -58 0
-18 -78 0
-18 -123 0
-38 -58 0
-38 -78 0
-38 -123 0
-58 -78 0
-58 -123 0
-78 -123 0
-23 -43 0
-23 -63 0
-23 -83 0
-23 -103 0
-43 -63 0
-43 -83 0
-43 -103 0
-63 -83 0
-63 -103 0
-83 -103 0
-4 -49 0
-4 -69 0
-4 -89 0
-4 -109 0
-49 -69 0
-49 -89 0
-49 -109 0
-69 -89 0
-69 -109 0
-89 -109 0
-9 -29 0
-9 -74 0
-9 -94 0
-9 -114 0
-29 -74 0
-29 -94 0
-29 -114 0
-74 -94 0
-74 -114 0
-94 -114 0
-14 -34 0
-14 -54 0
-14 -99 0
-14 -119 0
-34 -54 0
-34 -99 0
-34 -119 0
-54 -99 0
-54 -119 0
-99 -119 0
-19 -39 0
-19 -59 0
-19 -79 0
-19 -124 0
-39 -59 0
-39 -79 0
-39 -124 0
-59 -79 0
-59 -124 0
-79 -124 0
-24 -44 0
-24 -64 0
-24 -84 0
-24 -104 0
-44 -64 0
-44 -84 0
-44 -104 0
-64 -84 0
-64 -104 0
-84 -104 0
-5 -50 0
-5 -70 0
-5 -90 0
-5 -110 0
-50 -70 0
-50 -90 0
-50 -110 0
-70 -90 0
-70 -110 0
-90 -110 0
-10 -30 0
-10 -75 0
-10 -95 0
-10 -115 0
-30 -75 0
-30 -95 0
-30 -115 0
-75 -95 0
-75 -115 0
-95 -115 0
-15 -35 0
-15 -55 0
-15 -100 0
-15 -120 0
-35 -55 0
-35 -100 0
-35 -120 0
-55 -100 0
-55 -120 0
-100 -120 0
-20 -40 0
-20 -60 0
-20 -80 0
-20 -125 0
-40 -60 0
-40 -80 0
-40 -125 0
-60 -80 0
-60 -125 0
-80 -125 0
-25 -45 0
-25 -65 0
-25 -85 0
-25 -105 0
-45 -65 0
-45 -85 0
-45 -105 0
-65 -85 0
-65 -105 0
-85 -105 0
